SDVRP instances/custom_instances/p04_26_split0.vrp
NAME:p04_26_split
BEST_KNOWN: 0
COMMENT: 0
DIMENSION: 697
CAPACITY: 200
EDGE_WEIGHT_FORMAT: FUNCTION
EDGE_WEIGHT_TYPE: EXACT_2D
NODE_COORD_SECTION
1 0.00000 0.00000
2 -32 -12
3 -32 -12
4 29 21
5 -3 33
6 -3 33
7 24 -4
8 24 -4
9 24 -4
10 24 -4
11 24 -4
12 24 -4
13 -12 9
14 -12 9
15 -12 9
16 -12 9
17 -12 9
18 -12 9
19 -26 -9
20 -26 -9
21 -26 -9
22 -26 -9
23 -26 -9
24 -7 26
25 -7 26
26 -7 26
27 -7 26
28 -7 26
29 -10 50
30 -10 50
31 -10 50
32 -10 50
33 -10 50
34 -43 -32
35 -43 -32
36 -43 -32
37 -43 -32
38 -43 -32
39 46 -26
40 46 -26
41 46 -26
42 46 -26
43 46 -26
44 46 -26
45 37 45
46 37 45
47 37 45
48 37 45
49 -38 6
50 -38 6
51 -38 6
52 -38 6
53 -7 -48
54 -7 -48
55 -7 -48
56 -7 -48
57 -23 -14
58 -23 -14
59 -23 -14
60 -23 -14
61 -23 -14
62 -23 -14
63 -23 -14
64 -42 30
65 -42 30
66 -42 30
67 -42 37
68 -42 37
69 -42 37
70 -42 37
71 -42 37
72 -28 5
73 -28 5
74 -28 5
75 -28 5
76 5 -49
77 5 -49
78 5 -49
79 5 -49
80 5 -49
81 -28 42
82 -28 42
83 -28 42
84 -28 42
85 -28 42
86 -35 -40
87 -35 -40
88 -35 -40
89 -35 -40
90 -35 -40
91 -35 -40
92 1 47
93 1 47
94 1 47
95 1 47
96 1 47
97 1 47
98 46 46
99 46 46
100 46 46
101 46 46
102 46 46
103 46 46
104 33 -8
105 33 -8
106 33 -8
107 -14 39
108 -14 39
109 -14 39
110 -14 39
111 -14 39
112 -14 39
113 15 41
114 15 41
115 15 41
116 15 41
117 15 41
118 15 41
119 -9 38
120 -9 38
121 -9 38
122 -9 38
123 -9 38
124 -9 38
125 25 27
126 25 27
127 25 27
128 25 27
129 25 27
130 25 27
131 -28 37
132 -28 37
133 -28 37
134 -28 37
135 46 -40
136 46 -40
137 46 -40
138 46 -40
139 46 -40
140 48 24
141 48 24
142 48 24
143 -37 40
144 -37 40
145 -37 40
146 -34 -15
147 -34 -15
148 -34 -15
149 -34 -15
150 24 16
151 24 16
152 24 16
153 24 16
154 -34 25
155 -34 25
156 -34 25
157 -34 25
158 -46 1
159 -46 1
160 -46 1
161 -46 1
162 -46 1
163 -28 44
164 -28 44
165 -28 44
166 -6 -31
167 -6 -31
168 -6 -31
169 -6 -31
170 -6 -31
171 45 15
172 45 15
173 45 15
174 45 15
175 -12 -36
176 -12 -36
177 -12 -36
178 -12 -36
179 38 37
180 38 37
181 38 37
182 38 37
183 38 37
184 -45 23
185 -45 23
186 -45 23
187 26 -2
188 26 -2
189 26 -2
190 26 -2
191 26 -2
192 -36 41
193 -36 41
194 -36 41
195 -36 41
196 -36 41
197 -49 33
198 -49 33
199 -49 33
200 -39 23
201 -39 23
202 -39 23
203 -39 23
204 -39 23
205 24 -29
206 24 -29
207 24 -29
208 24 -29
209 34 -11
210 34 -11
211 34 -11
212 34 -11
213 34 -11
214 34 -11
215 50 40
216 50 40
217 50 40
218 50 40
219 50 40
220 -44 -6
221 -44 -6
222 -44 -6
223 -44 -6
224 -44 -6
225 -44 -6
226 15 18
227 15 18
228 15 18
229 15 18
230 15 18
231 15 18
232 7 5
233 7 5
234 7 5
235 7 5
236 -27 24
237 -27 24
238 -27 24
239 -27 24
240 -27 24
241 -27 24
242 8 32
243 8 32
244 8 32
245 8 32
246 8 32
247 8 32
248 38 8
249 38 8
250 38 8
251 38 8
252 38 8
253 38 8
254 23 31
255 23 31
256 23 31
257 23 31
258 -35 49
259 -35 49
260 -35 49
261 -35 49
262 -35 49
263 42 -15
264 42 -15
265 42 -15
266 42 -15
267 42 -15
268 39 -23
269 39 -23
270 32 15
271 32 15
272 44 -40
273 44 -40
274 44 -40
275 -24 22
276 -24 22
277 -24 22
278 -20 16
279 -20 16
280 -20 16
281 -20 16
282 -20 16
283 -46 3
284 -46 3
285 -46 3
286 -46 3
287 43 -32
288 43 -32
289 43 -32
290 43 -32
291 -32 -42
292 -32 -42
293 -32 -42
294 -32 -42
295 31 -16
296 31 -16
297 31 -16
298 31 -16
299 31 -16
300 31 -16
301 31 -16
302 -16 -12
303 -16 -12
304 -16 -12
305 -16 -12
306 -16 -12
307 -26 -3
308 -26 -3
309 -26 -3
310 -26 -3
311 -26 -3
312 7 4
313 7 4
314 7 4
315 7 4
316 39 44
317 39 44
318 39 44
319 39 44
320 39 44
321 -25 -33
322 -25 -33
323 -25 -33
324 -25 -33
325 -25 -33
326 35 -30
327 35 -30
328 35 -30
329 35 -30
330 -45 -7
331 -45 -7
332 -45 -7
333 -45 -7
334 -45 -7
335 -45 -7
336 -31 25
337 -31 25
338 -31 25
339 -31 25
340 25 -46
341 25 -46
342 25 -46
343 25 -46
344 25 -46
345 25 -46
346 25 -46
347 16 18
348 16 18
349 16 18
350 16 18
351 16 18
352 -11 47
353 -11 47
354 -11 47
355 18 -43
356 18 -43
357 18 -43
358 18 -43
359 -11 44
360 -11 44
361 -11 44
362 -11 44
363 -11 44
364 -11 44
365 24 4
366 24 4
367 24 4
368 24 4
369 24 4
370 24 4
371 -25 13
372 -25 13
373 -25 13
374 -25 13
375 -25 13
376 -25 13
377 -14 -37
378 -14 -37
379 -14 -37
380 -14 -37
381 -8 -28
382 -8 -28
383 -8 -28
384 -5 4
385 -5 4
386 -5 4
387 -5 4
388 7 -16
389 7 -16
390 7 -16
391 7 -16
392 7 -16
393 7 -16
394 -42 -27
395 -42 -27
396 -42 -27
397 -15 -4
398 -15 -4
399 -15 -4
400 -15 -4
401 -38 -9
402 -38 -9
403 -38 -9
404 -38 -9
405 -38 -9
406 -23 36
407 -23 36
408 -23 36
409 -23 36
410 -15 19
411 -15 19
412 -15 19
413 -15 19
414 -15 19
415 -31 28
416 -31 28
417 -31 28
418 -31 28
419 -31 28
420 -48 19
421 -48 19
422 -48 19
423 -48 19
424 -48 19
425 -48 19
426 -48 19
427 -42 18
428 -42 18
429 -42 18
430 -42 18
431 -42 18
432 -42 18
433 -42 18
434 30 -5
435 30 -5
436 30 -5
437 30 -5
438 30 -5
439 1 -17
440 1 -17
441 1 -17
442 1 -17
443 1 -17
444 1 -17
445 -3 -4
446 -3 -4
447 -3 -4
448 3 -13
449 3 -13
450 3 -13
451 34 20
452 34 20
453 34 20
454 34 20
455 34 20
456 -44 -11
457 -44 -11
458 -44 -11
459 -44 -11
460 -44 -11
461 -44 -11
462 -43 -14
463 -43 -14
464 -43 -14
465 -43 -14
466 -43 -14
467 29 -27
468 29 -27
469 29 -27
470 29 -27
471 29 -27
472 29 -27
473 29 -27
474 29 -27
475 32 -21
476 32 -21
477 32 -21
478 32 -21
479 32 -21
480 22 -47
481 22 -47
482 22 -47
483 22 -47
484 22 -47
485 22 -47
486 22 -47
487 22 -47
488 32 -38
489 32 -38
490 32 -38
491 32 -38
492 -49 -44
493 -49 -44
494 -9 -44
495 -9 -44
496 -9 -44
497 -9 -44
498 -9 -44
499 31 -1
500 31 -1
501 31 -1
502 31 -1
503 31 -1
504 31 -1
505 41 -45
506 41 -45
507 41 -45
508 41 -45
509 41 -45
510 41 -45
511 41 -45
512 50 -11
513 50 -11
514 50 -11
515 50 -11
516 50 -11
517 -35 -45
518 -35 -45
519 -35 -45
520 -35 -45
521 -35 -45
522 -17 3
523 -17 3
524 -17 3
525 -17 3
526 -46 -30
527 -46 -30
528 -46 -30
529 -46 -30
530 -26 50
531 -26 50
532 -26 50
533 -26 50
534 12 48
535 12 48
536 12 48
537 12 48
538 12 48
539 12 48
540 -7 -14
541 -7 -14
542 -7 -14
543 -7 -14
544 -7 -14
545 -7 -14
546 -39 45
547 19 -41
548 19 -41
549 19 -41
550 19 -41
551 19 -41
552 19 -41
553 49 -38
554 49 -38
555 49 -38
556 -3 -25
557 -3 -25
558 -3 -25
559 -3 -25
560 -31 25
561 -31 25
562 -31 25
563 -31 25
564 -31 25
565 26 40
566 26 40
567 26 40
568 26 40
569 26 40
570 -30 -36
571 -30 -36
572 -30 -36
573 -30 -36
574 -30 -36
575 -30 -36
576 -30 -36
577 4 -20
578 4 -20
579 4 -20
580 4 -20
581 4 -20
582 4 -20
583 -1 35
584 -1 35
585 -1 35
586 -9 -16
587 -9 -16
588 -9 -16
589 -16 -33
590 -16 -33
591 -16 -33
592 -16 -33
593 36 -20
594 36 -20
595 36 -20
596 36 -20
597 0 33
598 0 33
599 0 33
600 0 33
601 -6 -49
602 -6 -49
603 -6 -49
604 -14 -44
605 -14 -44
606 -14 -44
607 -14 -44
608 -14 -44
609 -14 -44
610 -20 36
611 -20 36
612 -20 36
613 -20 36
614 -20 36
615 -43 -15
616 -43 -15
617 -43 -15
618 -33 13
619 -33 13
620 -33 13
621 -33 13
622 -33 13
623 -33 13
624 -33 13
625 -27 41
626 -27 41
627 -27 41
628 -27 41
629 -27 41
630 16 -23
631 16 -23
632 16 -23
633 16 -23
634 16 -23
635 18 4
636 18 4
637 18 4
638 5 -13
639 5 -13
640 5 -13
641 5 -13
642 5 -13
643 -33 -48
644 -33 -48
645 -10 -45
646 -10 -45
647 -10 -45
648 -10 -45
649 -10 -45
650 50 -24
651 50 -24
652 50 -24
653 -27 37
654 -27 37
655 -27 37
656 -27 37
657 -27 37
658 29 -34
659 29 -34
660 50 21
661 50 21
662 50 21
663 50 21
664 50 21
665 50 21
666 37 -35
667 37 -35
668 37 -35
669 37 -35
670 37 -35
671 37 -35
672 16 -20
673 16 -20
674 16 -20
675 -8 35
676 -8 35
677 -8 35
678 -8 35
679 -8 35
680 -36 35
681 -36 35
682 -36 35
683 -21 -21
684 -21 -21
685 -21 -21
686 -21 -21
687 -21 -21
688 -21 -21
689 -21 -21
690 -29 32
691 -29 32
692 -29 32
693 -29 32
694 11 -18
695 11 -18
696 11 -18
697 11 -18
DEMAND_SECTION
1 0
2 40
3 2
4 40
5 40
6 10
7 40
8 20
9 2
10 2
11 2
12 1
13 40
14 10
15 2
16 2
17 2
18 2
19 20
20 2
21 2
22 2
23 2
24 40
25 10
26 2
27 2
28 2
29 20
30 2
31 2
32 2
33 1
34 40
35 20
36 10
37 2
38 2
39 40
40 40
41 10
42 2
43 2
44 2
45 20
46 10
47 2
48 1
49 40
50 2
51 2
52 1
53 40
54 2
55 2
56 2
57 40
58 40
59 10
60 2
61 2
62 2
63 2
64 20
65 10
66 2
67 20
68 10
69 2
70 2
71 2
72 40
73 20
74 10
75 2
76 40
77 10
78 2
79 2
80 2
81 20
82 2
83 2
84 2
85 1
86 20
87 10
88 2
89 2
90 2
91 2
92 20
93 2
94 2
95 2
96 2
97 1
98 40
99 20
100 10
101 2
102 2
103 2
104 40
105 2
106 2
107 40
108 20
109 10
110 2
111 2
112 2
113 40
114 20
115 2
116 2
117 2
118 2
119 40
120 40
121 2
122 2
123 2
124 1
125 20
126 2
127 2
128 2
129 2
130 1
131 40
132 40
133 10
134 2
135 40
136 40
137 10
138 2
139 1
140 40
141 20
142 1
143 40
144 40
145 10
146 40
147 2
148 2
149 1
150 40
151 20
152 10
153 2
154 40
155 20
156 2
157 2
158 20
159 2
160 2
161 2
162 2
163 40
164 20
165 2
166 40
167 40
168 10
169 2
170 1
171 40
172 2
173 2
174 2
175 40
176 40
177 2
178 2
179 40
180 20
181 2
182 2
183 1
184 40
185 20
186 2
187 20
188 10
189 2
190 2
191 1
192 20
193 2
194 2
195 2
196 1
197 40
198 40
199 1
200 20
201 2
202 2
203 2
204 1
205 40
206 20
207 2
208 1
209 40
210 20
211 2
212 2
213 2
214 2
215 40
216 40
217 10
218 2
219 1
220 40
221 20
222 2
223 2
224 2
225 1
226 40
227 40
228 2
229 2
230 2
231 1
232 40
233 40
234 2
235 1
236 40
237 20
238 10
239 2
240 2
241 2
242 40
243 20
244 10
245 2
246 2
247 2
248 40
249 20
250 2
251 2
252 2
253 2
254 40
255 20
256 10
257 1
258 40
259 2
260 2
261 2
262 1
263 40
264 20
265 2
266 2
267 1
268 40
269 20
270 40
271 2
272 40
273 40
274 10
275 20
276 10
277 1
278 40
279 40
280 2
281 2
282 1
283 40
284 40
285 10
286 2
287 40
288 2
289 2
290 1
291 20
292 10
293 2
294 2
295 40
296 40
297 10
298 2
299 2
300 2
301 1
302 40
303 20
304 10
305 2
306 2
307 20
308 2
309 2
310 2
311 1
312 20
313 10
314 2
315 2
316 40
317 20
318 2
319 2
320 2
321 40
322 20
323 10
324 2
325 2
326 20
327 2
328 2
329 1
330 40
331 40
332 10
333 2
334 2
335 2
336 40
337 2
338 2
339 2
340 40
341 20
342 10
343 2
344 2
345 2
346 2
347 40
348 40
349 10
350 2
351 1
352 20
353 10
354 2
355 20
356 10
357 2
358 1
359 40
360 20
361 2
362 2
363 2
364 1
365 20
366 2
367 2
368 2
369 2
370 1
371 40
372 10
373 2
374 2
375 2
376 1
377 40
378 40
379 2
380 1
381 40
382 20
383 2
384 40
385 40
386 10
387 1
388 20
389 10
390 2
391 2
392 2
393 2
394 40
395 20
396 2
397 20
398 10
399 2
400 2
401 40
402 40
403 2
404 2
405 2
406 40
407 20
408 2
409 1
410 40
411 2
412 2
413 2
414 2
415 40
416 10
417 2
418 2
419 2
420 40
421 20
422 10
423 2
424 2
425 2
426 2
427 40
428 10
429 2
430 2
431 2
432 2
433 1
434 20
435 2
436 2
437 2
438 1
439 20
440 2
441 2
442 2
443 2
444 1
445 40
446 20
447 1
448 20
449 10
450 2
451 40
452 10
453 2
454 2
455 1
456 20
457 10
458 2
459 2
460 2
461 1
462 40
463 40
464 2
465 2
466 2
467 40
468 20
469 10
470 2
471 2
472 2
473 2
474 1
475 40
476 40
477 2
478 2
479 1
480 40
481 40
482 10
483 2
484 2
485 2
486 2
487 1
488 40
489 2
490 2
491 1
492 40
493 40
494 40
495 40
496 2
497 2
498 2
499 40
500 2
501 2
502 2
503 2
504 1
505 40
506 20
507 10
508 2
509 2
510 2
511 2
512 40
513 40
514 10
515 2
516 2
517 20
518 2
519 2
520 2
521 1
522 40
523 2
524 2
525 1
526 20
527 2
528 2
529 2
530 20
531 10
532 2
533 1
534 40
535 40
536 10
537 2
538 2
539 2
540 40
541 40
542 2
543 2
544 2
545 2
546 40
547 40
548 10
549 2
550 2
551 2
552 1
553 40
554 20
555 2
556 40
557 40
558 2
559 1
560 20
561 10
562 2
563 2
564 1
565 40
566 40
567 10
568 2
569 1
570 40
571 20
572 10
573 2
574 2
575 2
576 1
577 40
578 40
579 2
580 2
581 2
582 2
583 40
584 20
585 10
586 40
587 2
588 1
589 40
590 20
591 2
592 2
593 40
594 10
595 2
596 2
597 20
598 10
599 2
600 2
601 40
602 40
603 2
604 40
605 10
606 2
607 2
608 2
609 2
610 40
611 20
612 10
613 2
614 1
615 20
616 10
617 2
618 40
619 40
620 10
621 2
622 2
623 2
624 2
625 40
626 40
627 10
628 2
629 2
630 40
631 20
632 10
633 2
634 2
635 40
636 40
637 2
638 40
639 10
640 2
641 2
642 2
643 40
644 20
645 40
646 20
647 10
648 2
649 2
650 40
651 10
652 2
653 20
654 10
655 2
656 2
657 2
658 20
659 10
660 40
661 2
662 2
663 2
664 2
665 1
666 40
667 20
668 10
669 2
670 2
671 2
672 40
673 10
674 1
675 40
676 40
677 10
678 2
679 1
680 20
681 10
682 2
683 40
684 20
685 2
686 2
687 2
688 2
689 1
690 40
691 20
692 10
693 1
694 40
695 40
696 2
697 1
DEPOT_SECTION
1
-1
EOF