SDVRP instances/custom_instances/p04_26_split0.sol
696 -6 10 11 7 365 364 369 366 367 150 151 149 225 -8 9 433 103 208 298 295 299 297 294 296 -15 12 275 274 276 235 236 239 240 237 238 409 413 412 -17 14 13 16 337 559 562 338 336 560 563 561 335 153 156 155 414 416 418 415 417 -22 19 21 20 18 1 2 400 401 402 404 403 396 399 397 398 -26 25 24 118 121 122 120 123 359 363 360 358 362 361 352 351 353 30 31 28 32 29 678 676 677 -27 23 5 4 584 582 583 598 599 596 597 -35 34 36 37 33 528 526 527 525 395 394 393 59 61 62 58 302 304 -45 44 46 47 317 318 315 319 316 182 178 180 451 450 452 453 454 -73 72 74 50 48 51 49 282 285 283 284 157 159 160 161 158 -76 77 75 79 78 357 356 355 354 546 207 206 205 204 -92 96 95 94 91 93 536 537 534 535 533 538 115 116 114 117 113 112 -107 108 106 110 109 111 119 675 674 -128 125 127 126 129 181 179 97 98 102 99 101 100 214 217 218 215 216 -133 132 130 131 653 654 655 656 652 405 406 408 611 -136 137 138 134 135 554 552 553 289 286 288 287 -145 146 148 147 616 614 615 463 464 462 461 465 460 458 456 455 457 459 -152 3 140 139 141 661 663 664 659 662 660 172 171 173 170 368 -154 64 63 65 70 67 69 68 66 196 198 197 203 202 201 200 199 -169 168 166 167 165 380 382 381 585 587 586 -175 379 377 376 378 590 589 588 591 -177 174 176 608 603 606 604 607 605 648 646 644 494 495 496 -184 185 183 421 422 425 420 419 424 423 432 429 431 426 430 428 427 -187 188 189 190 186 500 498 502 503 501 499 248 251 252 249 250 247 270 269 -191 193 195 192 194 545 258 257 261 260 259 530 532 531 529 163 82 83 81 84 80 407 -210 211 209 213 212 262 265 264 266 263 515 511 513 512 514 105 104 436 434 435 437 -228 229 254 255 253 256 566 567 568 565 564 124 349 348 -230 227 226 350 347 346 243 242 246 244 245 241 -279 281 277 278 280 521 445 444 446 -300 595 594 592 593 267 268 476 477 475 474 478 -301 305 303 56 60 57 685 686 683 682 -308 306 307 309 310 223 219 221 220 224 222 333 329 330 332 334 331 -312 314 313 311 234 232 233 231 636 635 634 -324 322 323 321 320 293 291 292 290 519 516 518 520 517 642 643 -327 328 326 325 272 273 271 506 507 508 509 510 504 505 -340 345 341 344 342 339 343 483 485 479 481 480 482 484 486 550 548 549 547 551 -370 374 375 371 372 373 623 620 622 618 617 619 621 71 522 523 524 -383 384 386 385 -392 389 696 693 695 694 629 630 633 673 671 672 -410 411 691 690 692 689 143 142 144 680 679 681 -440 441 443 442 439 438 556 555 558 557 539 543 542 541 544 540 -448 631 632 657 658 490 487 488 489 667 666 670 665 669 668 472 471 467 473 469 -449 447 581 580 578 577 579 576 390 391 388 387 639 637 638 641 640 -470 468 466 39 41 42 38 40 43 651 650 649 -497 493 647 645 53 52 55 54 600 601 602 -571 572 570 573 575 569 574 87 88 90 89 85 86 491 492 688 687 684 -612 609 613 610 162 164 624 628 626 627 625 0 





OBJ=
4373.557
BEST_KNOWN=
0.000